15
1 0 3
2 0 8
2 1 7
3 0 1
3 1 5
3 2 11
4 3 5
5 3 7
6 0 4
6 1 5
6 2 9
6 4 8
6 5 7
7 0 9
7 1 8
7 2 8
7 4 1
8 1 2
8 2 5
8 3 9
8 4 8
8 6 11
9 5 10
9 6 11
9 7 8
10 3 4
10 8 6
11 0 4
11 4 10
11 7 6
11 9 10
11 10 3
12 1 10
12 2 11
12 4 4
12 6 6
12 9 4
12 10 11
12 11 7
13 1 1
13 5 1
13 6 10
13 7 12
13 8 1
13 9 10
13 11 8
13 12 12
14 0 11
14 1 3
14 2 1
14 4 9
14 7 10
14 8 6
14 10 9
14 11 2
14 12 7
14 13 12
